
Log started (V11.0.0) Thu May 15 00:51:43 2008

Tried aggregator 1 time.
Reduced MIP has 150 rows, 5001 columns, and 10050 nonzeros.
Presolve time =    0.05 sec.
Clique table members: 100.
MIP emphasis: balance optimality and feasibility.
MIP search method: dynamic search.
Parallel mode: none, using 1 thread.
Root relaxation solution time =    0.17 sec.

        Nodes                                         Cuts/
   Node  Left     Objective  IInf  Best Integer     Best Node    ItCnt     Gap

*     0+    0                        10963.0000      200.2397      463   98.17%
*     0+    0                          202.0000      200.2397      463    0.87%
      0     0      201.0000    72      202.0000      Fract: 4      473    0.50%
      0     2      201.0000    72      202.0000      201.0000      473    0.50%
    100    36      201.0000    21      202.0000      201.0000    24729    0.50%
    200    40      201.0000     5      202.0000      201.0000    60716    0.50%
    300    44      201.0000    49      202.0000      201.0000    96201    0.50%
    400    52      201.0000    47      202.0000      201.0000   127588    0.50%
    500    54      201.0000    50      202.0000      201.0000   154037    0.50%
*   531+    0                          201.0000      201.0000   164466    0.00%

Clique cuts applied:  3
Cover cuts applied:  10
Gomory fractional cuts applied:  6

Solution pool: 3 solutions saved.

MIP - Integer optimal solution:  Objective = 2.0100000000e+002
Solution time =   26.22 sec.  Iterations = 164466  Nodes = 531


Incumbent solution
Variable Name           Solution Value
Cmax                        201.000000
X_1_15                        1.000000
X_2_38                        1.000000
X_3_6                         1.000000
X_4_40                        1.000000
X_5_35                        1.000000
X_6_9                         1.000000
X_7_43                        1.000000
X_8_6                         1.000000
X_9_25                        1.000000
X_10_17                       1.000000
X_11_1                        1.000000
X_12_11                       1.000000
X_13_34                       1.000000
X_14_7                        1.000000
X_15_46                       1.000000
X_16_41                       1.000000
X_17_20                       1.000000
X_18_8                        1.000000
X_19_2                        1.000000
X_20_12                       1.000000
X_21_39                       1.000000
X_22_30                       1.000000
X_23_32                       1.000000
X_24_27                       1.000000
X_25_33                       1.000000
X_26_3                        1.000000
X_27_9                        1.000000
X_28_19                       1.000000
X_29_18                       1.000000
X_30_37                       1.000000
X_31_16                       1.000000
X_32_35                       1.000000
X_33_24                       1.000000
X_34_31                       1.000000
X_35_3                        1.000000
X_36_10                       1.000000
X_37_33                       1.000000
X_38_48                       1.000000
X_39_26                       1.000000
X_40_49                       1.000000
X_41_44                       1.000000
X_42_18                       1.000000
X_43_43                       1.000000
X_44_5                        1.000000
X_45_19                       1.000000
X_46_49                       1.000000
X_47_38                       1.000000
X_48_47                       1.000000
X_49_34                       1.000000
X_50_26                       1.000000
X_51_16                       1.000000
X_52_37                       1.000000
X_53_12                       1.000000
X_54_28                       1.000000
X_55_14                       1.000000
X_56_45                       1.000000
X_57_6                       -0.000000
X_57_40                       1.000000
X_58_47                       1.000000
X_59_4                        1.000000
X_60_5                        1.000000
X_61_36                       1.000000
X_62_31                       1.000000
X_63_30                       1.000000
X_64_21                       1.000000
X_65_20                      -0.000000
X_65_50                       1.000000
X_66_50                       1.000000
X_67_13                       1.000000
X_68_4                        1.000000
X_69_10                       1.000000
X_70_48                       1.000000
X_71_29                       1.000000
X_72_36                       1.000000
X_73_28                       1.000000
X_74_20                       1.000000
X_74_40                      -0.000000
X_75_25                       1.000000
X_76_39                       1.000000
X_77_45                       1.000000
X_78_7                        1.000000
X_79_21                       1.000000
X_80_15                       1.000000
X_81_23                       1.000000
X_82_32                       1.000000
X_83_44                       1.000000
X_84_14                       1.000000
X_85_1                        1.000000
X_86_13                       1.000000
X_87_11                       1.000000
X_88_46                       1.000000
X_89_22                       1.000000
X_90_42                       1.000000
X_91_8                        1.000000
X_92_41                       1.000000
X_93_2                        1.000000
X_94_23                       1.000000
X_95_42                       1.000000
X_96_24                       1.000000
X_97_22                       1.000000
X_98_27                       1.000000
X_99_29                       1.000000
X_100_17                      1.000000
All other variables in the range 1-5001 are 0.
